\ This file has been generated by DOcplex
\ ENCODING=ISO-8859-1
\Problem name: SOTA zerosum tiger

Maximize
 obj: V
Subject To
 c1: V + 2 a0_0 + 46 a0_1 + 46 a0_2 <= 0
 c2: V + 46 a0_0 + 15 a0_1 + 100 a0_2 <= 0
 c3: V + 46 a0_0 + 100 a0_1 + 15 a0_2 <= 0
 c4: a0_0 + a0_1 + a0_2 = 1
 c5: V + 2 a1_0 + 46 a1_1 + 46 a1_2 <= 0
 c6: V + 46 a1_0 + 15 a1_1 + 100 a1_2 <= 0
 c7: V + 46 a1_0 + 100 a1_1 + 15 a1_2 <= 0
 c8: a1_0 + a1_1 + a1_2 = 1

Bounds
       a0_0 <= 1
       a0_1 <= 1
       a0_2 <= 1
       a1_0 <= 1
       a1_1 <= 1
       a1_2 <= 1
End
